asp/input/in_30_15_8_3.lp
#const n = 30.
#const k = 15.
#const h = 8.
tile(1,14,10).
tile(2,5,1).
tile(3,7,5).
tile(4,15,6).
tile(5,7,9).
tile(6,13,1).
tile(7,7,3).
tile(8,9,6).
tile(9,10,2).
tile(10,15,15).
tile(11,2,12).
tile(12,4,6).
tile(13,12,2).
tile(14,14,9).
tile(15,13,8).
tile(16,7,12).
tile(17,15,11).
tile(18,4,3).
tile(19,4,11).
tile(20,9,3).
tile(21,11,3).
tile(22,2,7).
tile(23,8,5).
tile(24,6,15).
tile(25,3,4).
tile(26,8,15).
tile(27,4,6).
tile(28,3,13).
tile(29,13,4).
tile(30,5,2).
