minizinc/input/in_30_15_8_3.dzn
n = 30;
k = 15;
h = 8;
tiles = array2d(1..n, 1..2,
[ 14,10
, 5,1
, 7,5
, 15,6
, 7,9
, 13,1
, 7,3
, 9,6
, 10,2
, 15,15
, 2,12
, 4,6
, 12,2
, 14,9
, 13,8
, 7,12
, 15,11
, 4,3
, 4,11
, 9,3
, 11,3
, 2,7
, 8,5
, 6,15
, 3,4
, 8,15
, 4,6
, 3,13
, 13,4
, 5,2
]);